InboundTrucks  = 120;
OutboundTrucks = 60;
ReleaseTime    = [181,238,317,33,11,46,26,89,89,92,39,109,59,98,110,67,103,68,303,113,9,329,92,37,45,59,2,72,39,120,231,354,87,110,107,19,299,237,70,16,230,105,14,340,67,205,13,85,21,212,11,64,112,59,66,47,82,10,18,68,54,13,41,12,42,226,262,93,92,38,360,34,13,118,2,340,91,43,39,38,10,86,102,8,58,61,0,28,77,85,29,312,97,262,62,90,45,76,32,307,38,76,46,17,108,38,35,30,74,28,63,54,291,310,120,205,52,48,96,256];
UnloadTime     = [6,9,3,3,2,7,12,8,4,4,12,6,12,8,3,8,4,4,9,5,10,6,8,8,3,2,9,10,3,10,12,5,2,7,7,6,4,3,7,4,9,6,1,1,9,10,9,8,1,3,3,12,6,2,7,10,12,11,3,8,8,7,1,3,6,5,3,5,10,11,10,8,4,3,7,4,7,12,2,5,4,4,5,11,4,7,4,10,3,9,9,2,3,4,2,10,11,6,4,12,12,10,3,3,4,1,1,12,8,3,6,4,11,10,4,11,1,4,7,5];
LoadTime       = [1,6,8,10,7,8,3,1,1,5,10,6,1,11,11,11,4,12,5,4,10,7,6,8,3,8,8,3,6,9,2,9,7,9,8,8,2,3,10,7,6,3,11,12,11,4,1,4,1,1,2,12,7,4,1,12,10,1,9,3];
TransferTime   = [| 0,2,0,2,1,1,1,1,0,0,0,0,0,0,0,0,2,0,0,2,0,0,1,0,1,0,2,0,0,0,2,1,0,2,0,0,2,0,1,0,0,0,0,0,1,1,0,2,2,0,1,0,0,2,2,0,0,0,0,2 | 1,0,2,0,0,2,2,2,0,0,1,0,1,2,0,1,0,1,0,2,0,0,1,0,1,0,0,0,0,1,2,0,1,0,0,2,0,2,0,2,2,0,1,0,2,2,0,1,0,0,2,0,0,0,0,1,2,1,0,0 | 0,1,0,0,0,0,0,0,1,0,2,2,2,0,2,0,0,1,0,0,0,1,0,1,1,0,2,0,1,0,0,2,0,0,2,0,0,1,2,2,0,0,0,0,1,0,2,0,2,1,0,1,1,0,2,1,0,1,0,0 | 0,0,0,1,2,0,2,0,1,0,1,1,2,0,2,1,0,0,0,2,0,0,0,0,0,0,0,1,0,1,0,1,0,0,0,0,2,0,0,0,2,0,1,0,1,0,1,2,1,2,0,1,0,1,0,1,0,0,0,1 | 0,2,1,1,1,0,0,1,0,0,0,0,0,0,0,1,0,0,0,1,2,0,0,0,0,0,1,0,0,0,0,0,0,0,1,2,0,0,0,0,0,0,0,0,2,0,0,0,0,0,0,0,0,2,2,0,0,0,2,1 | 0,2,2,0,0,0,0,0,2,2,0,1,0,1,2,2,1,0,1,2,1,0,0,0,0,1,1,2,1,0,0,1,2,1,2,0,0,1,0,0,1,1,1,0,0,2,2,2,0,0,0,0,0,2,0,0,1,0,2,1 | 1,0,0,0,0,1,2,0,1,0,0,0,1,2,1,0,0,0,1,1,2,2,2,0,0,0,0,2,2,2,1,0,0,0,0,2,0,0,0,0,0,0,0,0,1,2,0,0,0,0,1,1,0,0,2,0,0,0,2,0 | 2,0,0,0,2,2,1,0,2,2,2,0,1,1,2,1,0,0,0,0,0,0,0,0,0,2,0,0,0,0,1,2,0,2,0,2,0,2,0,0,2,0,2,0,1,0,1,0,2,1,2,2,0,0,0,0,0,0,2,2 | 0,0,0,0,0,0,0,0,0,1,0,0,0,1,0,0,2,1,0,2,0,0,2,0,2,2,1,0,2,0,2,2,0,2,0,0,0,0,0,0,0,1,1,0,0,1,0,1,1,1,0,1,0,0,0,0,2,0,2,0 | 1,2,0,1,1,0,1,1,1,2,2,0,1,1,1,0,0,0,2,0,0,0,0,0,0,1,2,1,2,2,0,0,0,0,1,0,2,0,2,1,2,1,1,1,0,0,1,0,0,1,0,2,0,2,0,0,2,2,0,2 | 0,2,0,2,0,0,2,0,0,0,0,0,2,0,2,0,0,0,0,0,0,0,0,0,0,0,1,0,0,0,2,1,0,2,0,1,1,0,0,0,0,0,1,0,0,0,0,0,0,0,0,0,0,0,1,0,2,0,0,2 | 1,0,0,0,0,0,0,0,0,1,0,2,0,2,1,2,2,0,0,0,1,0,2,1,2,0,0,2,2,0,0,0,0,0,0,1,0,0,0,0,1,0,0,1,2,0,0,0,2,0,1,0,0,1,0,0,1,2,2,0 | 2,2,0,1,2,0,2,0,2,0,0,0,2,0,0,0,2,1,0,2,0,2,0,2,2,0,1,2,0,2,1,2,2,0,1,1,1,1,1,0,0,2,0,0,0,2,1,2,0,0,2,0,0,2,1,0,1,0,0,0 | 0,0,0,0,1,1,1,0,0,0,2,0,2,0,0,0,0,1,0,0,2,1,0,2,0,0,0,2,2,1,0,0,0,0,0,1,2,0,1,1,0,2,0,2,0,0,2,0,0,0,0,0,0,0,2,2,2,1,0,0 | 0,1,2,1,2,0,1,2,0,0,0,2,0,0,0,0,0,0,2,0,0,0,2,0,0,1,0,0,2,0,0,0,0,0,0,2,0,0,1,1,1,0,0,0,2,0,0,0,0,0,0,1,0,1,0,0,2,0,0,2 | 1,0,0,0,2,0,1,0,2,0,0,0,0,0,0,0,2,1,2,2,0,0,2,0,0,2,0,2,0,0,0,2,0,2,0,0,0,0,0,0,0,1,2,0,0,1,2,2,0,0,0,0,2,0,1,1,2,0,0,0 | 0,0,0,0,0,0,0,0,1,2,0,0,0,0,0,2,0,1,0,0,0,2,1,0,0,2,0,1,1,0,1,0,0,0,0,1,0,2,0,0,0,0,0,2,2,0,2,0,2,0,0,0,0,0,2,2,2,0,2,1 | 1,1,1,1,0,0,2,0,0,0,1,0,2,2,0,0,0,0,0,0,1,1,2,0,0,0,0,0,1,1,1,0,0,0,1,1,0,0,0,0,0,0,1,0,0,0,0,2,1,1,0,1,1,0,0,0,0,0,2,2 | 1,1,0,0,0,1,1,1,0,1,0,0,0,0,2,0,2,1,2,0,0,2,0,0,0,0,0,0,1,0,0,0,0,2,2,0,0,1,1,0,1,1,0,0,0,0,0,0,2,0,2,0,0,0,1,2,0,2,2,2 | 0,0,2,2,2,2,0,0,0,1,1,1,0,1,1,0,0,1,2,0,0,0,2,0,0,0,0,0,2,2,2,0,2,0,0,0,0,1,0,1,1,0,1,1,0,0,2,1,1,2,0,2,1,0,0,1,0,2,2,0 | 0,0,0,0,2,1,0,0,0,0,0,1,0,0,0,2,2,0,0,0,0,2,0,0,0,2,0,2,0,0,2,2,0,1,2,0,2,2,2,0,2,0,2,0,0,1,0,0,0,2,2,0,0,0,1,0,0,2,2,2 | 1,1,0,0,0,0,2,2,0,0,0,2,0,0,2,1,0,2,1,1,0,0,0,0,0,1,0,0,2,2,0,0,0,0,0,0,1,2,0,1,0,0,0,2,0,1,0,0,0,2,0,0,2,0,0,1,1,2,0,0 | 0,0,0,0,0,1,2,2,1,0,0,0,1,0,2,0,0,2,2,0,0,0,0,2,0,1,1,2,0,0,0,2,0,0,0,1,0,0,0,1,0,0,0,1,2,2,0,0,0,0,0,1,0,0,2,1,0,1,1,0 | 2,0,0,1,0,0,0,0,1,0,2,0,2,1,1,0,2,0,0,2,2,0,0,0,0,0,0,0,0,0,0,0,2,2,0,0,0,0,1,1,0,0,1,1,1,1,0,1,0,0,0,0,2,0,0,0,2,0,0,0 | 0,4,0,1,0,0,0,1,0,4,0,4,1,2,2,0,0,1,0,1,3,0,0,4,4,4,0,0,0,0,3,0,0,0,0,3,3,3,1,0,0,0,0,0,0,0,0,0,0,0,0,0,0,4,0,0,0,0,0,0 | 1,5,0,4,0,0,4,2,4,0,2,0,0,0,0,0,5,0,0,1,0,0,0,0,0,0,0,4,0,4,0,5,0,0,5,0,5,4,0,0,0,4,0,0,0,0,0,0,0,0,0,0,4,1,0,5,4,0,5,0 | 4,3,0,0,4,0,0,0,0,1,0,0,0,5,1,0,2,0,1,0,0,0,0,1,0,0,0,0,1,2,4,0,5,0,0,0,0,0,0,0,0,0,0,0,5,3,0,3,1,1,1,0,5,0,0,0,4,0,0,0 | 0,4,0,0,2,0,0,0,0,4,1,0,0,0,0,0,2,0,0,0,0,0,3,0,0,1,3,0,4,5,0,2,0,3,0,5,5,5,0,0,0,0,0,0,0,0,1,0,0,1,0,0,0,2,0,0,1,4,0,0 | 0,0,0,0,0,0,5,0,0,0,0,0,0,0,0,3,0,0,1,0,1,3,0,1,0,0,0,0,0,0,5,4,0,0,0,0,5,0,0,4,1,0,0,1,0,4,0,4,0,0,4,0,5,0,0,0,0,0,0,0 | 3,0,0,3,0,3,0,0,2,0,0,0,1,0,0,0,5,0,5,0,4,0,0,0,5,4,5,0,5,0,3,0,0,0,0,4,0,0,0,0,2,0,0,5,0,0,3,0,0,0,0,0,5,0,4,0,0,2,5,0 | 0,0,5,0,0,0,0,0,0,0,0,0,2,0,0,3,1,0,2,0,0,0,2,0,2,0,0,0,0,1,0,0,3,0,0,0,0,0,0,0,0,0,2,0,0,0,4,0,0,1,0,0,2,2,3,0,0,0,0,0 | 0,4,0,0,0,0,5,4,4,0,0,0,5,1,2,1,0,0,3,1,0,0,2,3,0,0,0,1,0,0,0,0,0,0,0,0,5,0,0,0,0,0,0,0,0,4,0,0,1,0,0,1,3,5,0,0,0,0,0,0 | 0,4,0,1,2,0,1,0,0,0,0,1,2,1,0,0,0,5,0,0,0,0,0,0,0,0,0,0,2,5,0,0,0,0,4,0,0,0,0,1,4,0,0,0,0,0,0,0,5,0,0,0,0,0,4,0,2,0,4,0 | 0,0,1,3,2,4,0,0,0,0,0,0,0,0,3,0,3,0,0,2,0,0,0,0,2,0,0,4,0,5,0,0,0,2,0,0,0,3,1,0,0,0,0,2,0,3,0,1,0,4,4,0,0,5,0,0,0,0,2,3 | 0,0,0,3,1,0,0,1,0,0,0,0,0,4,0,4,3,0,0,4,0,1,0,0,3,0,1,0,0,0,2,3,0,0,0,0,0,1,0,4,2,0,0,0,0,1,5,0,2,0,0,0,0,4,0,5,0,0,5,0 | 1,0,0,0,0,0,1,0,0,0,0,0,5,0,0,0,0,0,0,0,0,0,0,0,0,5,0,0,0,0,4,0,0,0,0,4,0,0,0,3,0,0,1,0,5,0,0,5,0,2,0,0,0,0,5,4,0,3,2,0 | 0,4,0,3,0,0,3,0,0,0,0,0,4,0,0,5,0,0,0,3,0,0,2,5,4,0,0,0,0,1,0,0,0,0,0,0,0,0,0,0,1,0,0,5,0,2,0,1,0,0,0,0,3,3,0,0,0,0,0,0 | 0,3,0,0,3,5,0,0,0,0,0,0,0,0,0,0,0,0,1,2,0,0,0,1,0,0,0,0,0,0,0,0,5,2,0,0,0,5,0,0,2,2,0,0,3,4,0,0,0,4,0,3,0,0,1,0,1,0,0,0 | 0,0,3,0,0,0,0,4,0,0,0,0,0,0,0,5,0,0,2,0,3,4,0,0,3,0,0,4,0,0,0,0,0,0,5,4,0,0,0,0,0,0,0,0,0,0,3,0,4,4,0,0,3,5,2,0,2,0,2,4 | 0,0,4,4,0,2,0,0,2,0,0,5,0,0,0,0,0,0,0,0,0,2,1,0,4,1,0,0,0,0,0,1,1,4,5,0,0,0,2,0,0,0,0,3,0,0,0,0,0,0,3,4,0,0,0,0,0,0,0,1 | 0,1,0,0,0,2,0,4,0,0,4,1,0,0,0,0,0,1,0,0,0,5,0,0,5,0,0,0,0,0,5,5,0,0,2,2,0,0,0,2,0,4,0,1,1,5,0,0,0,0,3,0,0,0,0,0,0,0,5,0 | 5,0,0,0,0,0,0,0,0,4,0,0,0,2,1,0,3,4,0,0,0,0,0,0,0,0,0,0,4,0,0,1,0,4,0,1,0,0,0,0,0,0,0,1,0,0,0,0,0,1,0,0,4,5,0,2,0,0,3,0 | 0,0,0,2,0,0,0,0,0,0,0,0,0,0,0,0,0,2,0,0,0,0,0,3,0,1,0,0,0,1,0,0,3,0,0,2,0,0,5,4,0,0,0,0,2,0,2,0,5,0,0,3,0,4,0,0,2,3,4,0 | 0,0,2,0,0,2,4,0,0,0,0,0,3,0,0,4,3,0,0,0,0,5,3,0,0,0,4,0,0,0,0,4,0,0,0,1,0,5,0,3,0,0,3,5,0,0,4,3,0,0,0,5,5,0,0,0,0,0,0,0 | 0,0,0,0,4,4,0,2,1,0,0,0,0,0,0,4,0,3,5,1,2,1,1,0,0,2,0,0,0,0,0,0,2,3,0,2,0,0,2,3,0,0,0,0,0,0,4,0,0,3,2,0,1,3,0,0,1,0,0,3 | 0,0,0,3,0,0,0,0,0,2,0,0,0,3,0,0,0,0,0,0,0,0,0,0,0,0,0,4,2,0,0,4,0,0,3,4,0,0,0,1,0,0,0,0,0,0,0,0,2,0,0,0,0,2,0,0,0,2,0,0 | 0,1,0,0,0,0,0,0,0,0,0,0,0,0,0,0,0,4,2,2,2,0,0,0,0,0,0,0,0,0,0,0,5,1,0,0,0,0,0,4,0,0,3,5,0,0,0,0,2,0,0,0,0,0,0,0,0,0,2,0 | 0,0,0,0,0,0,2,4,0,5,0,0,0,0,0,0,5,0,0,0,0,0,3,0,0,0,0,0,0,0,0,0,5,0,0,0,0,0,4,0,2,0,0,0,0,0,2,0,4,5,3,4,3,5,3,0,1,0,0,1 | 0,0,0,2,0,0,4,0,4,0,0,4,3,0,0,5,0,0,0,0,0,2,0,0,1,0,3,5,2,0,4,0,0,4,0,4,2,0,0,3,0,0,0,0,0,0,0,0,0,4,5,2,4,0,1,0,0,0,0,0 | 0,0,0,0,4,0,2,5,0,0,0,0,0,2,0,5,0,4,0,0,0,0,0,0,0,0,4,1,0,1,0,0,0,0,0,3,0,0,4,5,2,0,0,1,0,0,0,0,0,0,5,0,3,0,0,2,0,5,1,0 | 0,0,3,0,2,0,0,0,5,0,0,3,3,1,2,0,0,0,0,0,0,0,0,0,0,0,0,2,5,0,0,4,0,0,1,0,0,0,0,5,0,1,5,0,0,0,0,0,0,0,0,0,0,0,5,0,5,0,1,4 | 2,0,0,0,2,0,0,0,0,0,0,0,0,3,0,0,2,0,0,0,1,2,0,0,0,0,5,0,0,0,3,0,1,0,3,0,5,4,2,0,0,0,0,1,0,0,0,0,0,0,0,0,0,2,0,4,0,5,0,0 | 0,0,5,1,5,4,0,1,1,0,0,0,0,4,0,0,0,0,0,0,0,0,0,0,0,1,0,3,0,0,0,0,0,0,0,3,1,2,1,4,0,0,0,0,0,0,0,2,0,1,0,0,0,0,0,0,0,3,0,0 | 0,0,4,0,0,3,0,0,0,0,0,3,0,4,0,0,4,0,0,3,0,0,3,4,2,5,2,0,3,1,5,0,0,0,0,0,1,1,0,3,3,0,0,0,0,0,0,0,0,0,0,3,0,3,0,0,0,0,0,1 | 0,0,0,0,4,0,0,4,0,0,4,0,0,0,4,3,0,0,4,0,0,0,0,0,2,0,0,2,1,3,0,2,0,0,0,0,0,0,0,0,0,0,0,0,0,0,2,0,5,4,0,0,0,0,3,3,1,0,0,0 | 0,0,0,0,0,0,0,0,4,0,0,0,0,0,0,3,0,0,0,3,0,2,0,0,0,0,0,0,0,0,2,0,5,5,0,3,0,0,0,0,0,4,0,0,0,0,0,0,0,5,3,0,0,5,0,1,0,0,0,0 | 0,0,0,3,0,0,3,0,0,0,0,0,0,0,0,0,3,0,3,0,0,0,0,0,4,3,0,0,1,0,5,0,0,4,5,2,0,0,2,0,0,3,0,0,0,0,0,0,2,0,0,0,0,4,0,0,3,0,0,0 | 0,0,0,0,1,0,0,2,0,3,0,0,1,0,0,3,0,0,0,0,0,3,0,1,0,0,0,0,0,1,0,5,0,0,5,0,0,0,1,0,0,4,0,0,5,2,0,4,0,0,0,1,0,5,3,0,1,0,5,0 | 0,0,0,0,0,0,0,0,0,0,0,1,0,4,0,0,0,0,0,0,0,0,0,3,2,1,0,0,0,0,0,0,3,0,0,0,0,0,3,2,0,0,4,0,0,0,0,1,0,5,0,0,1,0,0,0,0,1,5,0 | 0,0,0,0,0,0,5,0,3,0,3,0,0,2,0,1,1,1,3,3,0,5,0,0,0,0,0,0,0,0,5,0,0,0,0,0,0,0,0,0,0,0,1,0,0,3,0,2,0,0,0,0,4,0,0,4,0,0,0,0 | 0,0,1,3,0,0,0,0,0,0,0,3,0,3,0,1,1,1,0,0,1,0,4,2,0,0,0,3,0,0,0,0,0,0,0,0,0,0,0,5,3,5,4,0,0,0,0,1,2,0,0,4,0,3,0,0,0,0,0,0 | 0,5,0,0,0,0,0,2,0,0,0,1,1,0,0,1,0,3,0,0,0,0,0,5,0,0,0,0,4,5,0,2,0,0,0,0,0,0,0,3,0,0,0,0,0,0,0,2,4,0,0,0,0,0,2,3,0,0,0,0 | 0,4,2,0,0,3,0,0,0,0,0,0,1,0,0,0,0,0,0,0,2,4,0,5,0,0,3,0,0,0,0,0,2,0,0,4,0,0,1,2,0,4,3,5,0,0,0,4,5,0,0,0,0,0,0,0,0,0,0,5 | 0,3,0,0,0,0,0,0,1,0,2,0,0,0,0,0,4,0,0,0,0,0,3,0,0,3,5,0,0,0,0,0,0,0,0,5,0,0,0,0,0,2,0,0,2,0,0,0,3,0,0,0,0,0,0,0,0,4,0,0 | 4,0,0,0,0,4,0,0,4,0,0,0,0,5,0,4,3,0,1,0,0,1,0,0,0,0,0,0,4,1,0,0,0,2,0,0,0,0,2,0,0,2,0,4,0,0,0,0,0,0,0,2,0,0,0,4,5,0,0,3 | 2,5,0,5,2,0,0,0,0,4,5,4,0,0,0,0,0,0,0,0,4,0,1,3,0,2,1,0,0,3,0,1,0,0,0,0,0,1,0,0,0,0,0,0,0,5,0,0,1,5,3,0,0,3,0,0,0,0,2,0 | 1,4,0,0,2,5,0,0,0,0,0,0,0,0,4,0,0,0,0,0,0,3,0,0,3,0,1,3,0,0,0,5,4,5,0,1,0,0,0,1,0,0,2,0,0,0,3,0,4,0,0,0,0,0,0,2,0,0,0,1 | 0,3,4,0,3,0,0,3,4,0,0,4,0,0,5,0,0,0,4,2,0,0,0,0,0,0,0,0,5,0,0,0,0,0,0,4,0,0,0,0,0,0,0,4,0,0,0,0,0,0,0,0,2,0,0,2,0,0,4,0 | 5,0,3,0,0,0,3,0,0,1,0,4,0,0,4,3,0,0,0,0,5,0,3,5,5,0,0,0,0,0,5,1,0,0,0,5,0,0,0,0,0,0,0,4,0,0,1,0,3,0,0,0,0,3,3,1,3,0,0,4 | 0,0,0,0,0,0,0,1,0,0,0,0,0,4,0,0,0,0,1,1,0,0,0,2,0,0,0,5,0,0,0,4,0,0,0,0,1,0,0,0,0,0,1,0,0,0,0,0,0,0,4,1,0,2,0,0,0,0,0,0 | 0,2,0,0,0,2,5,5,1,0,5,0,0,5,0,0,0,0,4,0,0,0,0,0,0,2,0,0,0,0,0,2,0,0,0,4,0,4,4,0,0,0,3,0,0,0,0,0,0,4,0,0,4,0,4,3,0,4,0,0 | 0,0,0,0,0,0,0,3,2,0,4,0,0,0,0,0,0,0,0,0,4,0,0,0,0,0,0,2,0,0,0,0,4,0,4,3,0,0,0,0,0,0,0,1,2,0,0,0,0,1,0,0,3,4,0,0,2,0,0,0 | 0,0,0,0,0,0,0,3,3,0,0,4,3,3,0,0,0,0,0,4,1,0,4,0,0,1,0,0,5,3,0,0,0,0,0,0,0,0,0,0,0,0,0,0,2,0,0,0,2,2,0,0,5,1,5,0,0,0,0,0 | 5,5,0,0,0,0,5,0,0,1,0,0,0,0,0,0,2,0,4,0,0,1,0,0,0,0,0,0,0,0,0,0,4,0,1,2,0,0,3,0,0,0,3,0,0,0,0,1,0,0,4,0,1,2,2,0,0,0,0,0 | 1,0,0,0,0,0,0,0,2,0,4,0,1,0,0,0,0,0,0,2,0,1,0,0,0,0,0,5,0,5,2,0,0,0,0,3,2,0,0,3,0,0,4,0,0,4,0,0,0,0,0,0,0,4,5,3,0,0,0,0 | 0,0,2,0,0,0,0,1,5,0,4,0,0,0,2,0,0,3,0,0,0,4,4,1,0,0,0,0,0,0,0,0,0,0,0,0,0,4,5,0,0,0,0,0,0,0,0,0,0,0,3,0,0,3,0,0,0,3,0,0 | 5,0,0,0,0,0,0,0,0,0,3,0,0,0,0,2,0,0,0,1,0,0,0,0,1,0,0,0,5,0,0,0,0,0,0,0,0,0,0,3,5,0,0,3,1,4,0,0,0,0,1,0,0,5,1,0,0,3,0,0 | 0,2,0,0,0,0,0,0,0,0,5,0,0,3,0,0,0,0,0,0,0,0,0,0,0,0,0,0,4,0,0,5,0,0,0,0,0,0,0,0,0,4,0,0,0,1,0,0,2,0,0,0,0,2,0,2,0,0,0,5 | 0,0,0,0,0,0,0,0,0,0,0,0,0,0,0,3,5,0,0,0,0,2,0,0,0,0,0,0,4,0,0,0,0,0,0,0,0,0,0,0,2,2,0,0,4,0,0,0,0,0,0,0,0,0,4,0,0,0,0,0 | 0,0,0,0,0,1,4,0,2,0,0,1,4,5,0,1,5,0,0,0,0,3,0,0,0,0,0,0,0,0,0,0,0,0,2,0,0,4,5,0,1,0,3,0,0,3,4,0,4,3,0,5,1,0,0,0,0,0,5,0 | 2,2,0,0,0,0,0,0,0,0,0,0,0,0,0,3,0,0,0,0,1,0,0,0,0,0,0,0,0,1,0,0,3,0,3,0,0,0,0,0,0,0,0,0,0,0,2,1,0,4,0,5,0,0,5,0,3,3,1,0 | 0,0,0,0,0,0,5,0,0,0,0,0,1,0,0,2,1,0,1,0,0,5,0,5,0,4,0,0,1,0,0,0,0,0,0,1,0,4,0,0,0,3,0,0,0,0,0,0,0,0,0,0,0,0,0,0,0,2,0,3 | 0,0,2,0,0,0,4,0,0,0,5,0,0,0,2,0,1,0,0,0,0,0,1,0,0,0,0,0,0,0,0,0,0,0,5,0,0,0,0,0,4,2,0,0,0,5,1,0,0,0,0,1,5,0,1,0,0,0,0,1 | 3,2,1,0,0,2,0,5,0,5,2,1,3,5,2,0,3,0,0,0,0,4,0,0,0,0,0,5,2,0,0,1,0,0,4,0,0,2,0,0,0,0,4,0,0,0,0,0,3,0,0,0,0,0,0,0,0,5,0,0 | 0,0,1,0,0,0,0,0,0,0,0,0,5,0,0,0,3,0,0,0,0,0,0,0,0,3,0,0,2,5,1,0,0,4,0,0,0,0,0,0,1,1,0,0,1,0,4,0,0,4,0,0,1,0,0,2,3,0,4,0 | 0,0,0,0,2,1,0,0,0,0,0,0,3,3,0,0,0,2,2,2,3,0,0,2,0,5,0,0,1,3,0,0,5,0,0,0,0,0,0,0,4,0,4,0,0,0,1,0,2,0,0,0,0,0,0,0,0,5,4,4 | 3,3,0,0,1,0,0,0,1,1,1,0,0,5,0,0,0,0,0,0,0,0,0,0,0,0,3,0,0,0,0,0,5,4,3,0,5,0,1,5,0,0,1,3,0,1,0,1,2,0,0,0,1,0,2,0,0,0,3,0 | 0,0,0,0,0,0,4,4,0,0,0,0,0,0,0,0,5,5,2,0,0,0,0,0,0,0,0,0,1,5,0,0,1,0,0,4,0,3,1,5,0,0,0,2,0,0,5,3,0,0,4,0,0,0,1,0,0,0,0,0 | 0,2,4,3,0,0,1,0,1,5,0,0,0,0,0,3,0,0,0,0,2,0,3,0,4,0,0,1,0,0,0,0,4,0,0,5,5,0,0,0,0,3,0,0,0,0,0,0,3,0,0,5,3,0,1,0,4,2,3,0 | 0,0,0,0,0,0,0,0,0,1,0,0,0,0,0,0,0,0,0,0,0,1,0,0,0,0,5,1,0,0,0,0,0,0,0,1,0,0,0,5,2,0,0,5,0,0,0,0,5,1,2,0,5,3,0,0,0,0,0,0 | 0,0,4,0,1,0,0,4,0,4,0,0,0,0,0,0,0,0,0,1,0,3,1,0,0,2,0,0,0,0,2,0,1,5,5,3,0,0,4,0,0,0,4,0,3,4,0,0,4,0,0,0,0,1,0,0,5,0,0,0 | 0,0,3,0,0,5,3,0,2,0,0,2,0,0,5,0,2,0,0,2,1,0,0,4,0,0,0,0,1,0,0,0,1,4,5,0,0,0,0,0,0,0,0,2,0,0,5,0,0,0,0,1,2,0,0,3,0,5,0,0 | 0,0,4,0,0,0,0,0,2,0,0,0,0,0,0,0,4,0,1,1,5,0,0,0,0,0,0,0,0,0,0,4,0,0,5,3,0,5,0,2,0,0,0,0,3,0,0,4,4,0,0,0,0,0,0,2,0,0,0,0 | 0,0,0,3,0,0,5,2,0,0,1,0,3,0,5,0,2,0,2,0,0,0,1,0,0,0,0,0,0,5,5,0,0,0,2,0,0,0,0,0,3,0,0,0,0,0,0,0,0,0,0,0,2,1,0,0,0,0,0,0 | 5,1,0,0,0,1,2,0,0,0,1,0,0,0,0,0,0,4,5,0,4,0,0,0,2,4,4,4,1,4,1,0,0,0,2,0,5,0,0,0,0,0,0,4,0,0,1,0,0,0,0,4,3,3,0,1,0,0,2,5 | 0,0,0,0,4,3,0,0,2,0,3,0,0,0,3,0,0,0,0,0,0,1,0,5,0,0,4,0,3,1,1,3,0,0,0,0,0,1,0,2,2,0,0,0,0,0,0,0,0,0,0,0,0,0,0,5,3,4,0,0 | 1,0,0,0,4,4,0,0,0,0,2,5,0,4,0,5,0,0,0,0,0,0,2,0,0,0,0,0,0,0,0,0,0,0,0,0,0,0,1,2,0,0,3,0,1,4,0,5,0,0,0,0,1,0,3,0,0,0,0,0 | 0,1,1,0,3,0,4,0,0,0,5,0,0,2,2,0,0,0,0,0,4,0,0,0,0,5,0,0,0,0,0,2,5,0,0,0,5,4,0,4,0,0,0,1,0,2,5,0,5,2,2,0,0,1,0,0,0,0,0,0 | 0,0,0,4,0,0,5,0,2,5,0,0,4,0,3,0,5,0,0,0,0,3,3,0,2,5,0,0,0,2,0,4,4,0,1,3,0,4,0,0,0,0,0,0,0,5,0,0,0,3,0,0,0,5,0,0,0,0,0,0 | 0,4,4,0,0,0,5,0,0,0,0,0,0,0,5,0,0,3,0,1,4,1,0,0,3,5,0,4,0,1,5,0,0,0,0,0,5,0,0,0,0,5,0,0,0,1,2,0,5,0,3,0,0,0,5,0,0,1,0,0 | 0,0,0,0,0,0,0,0,4,3,0,3,0,0,0,0,0,0,0,0,2,4,0,0,2,0,0,0,3,5,0,4,3,0,3,3,0,3,5,0,5,0,0,0,0,2,0,3,4,0,4,0,0,3,0,5,5,0,0,0 | 0,0,0,0,2,4,0,0,0,0,2,0,0,3,2,0,4,3,0,1,5,0,5,0,0,1,1,0,2,0,0,0,3,0,0,2,0,0,0,0,0,0,1,0,0,3,5,4,3,1,0,0,4,1,0,0,0,0,0,0 | 5,0,0,1,3,0,0,0,0,2,0,1,0,0,2,2,0,0,2,0,0,0,0,0,0,0,3,0,0,0,3,0,4,0,0,0,0,0,0,4,0,0,0,4,2,2,0,0,3,0,0,1,0,0,0,0,0,1,0,1 | 2,0,2,0,0,0,0,4,0,0,0,1,5,0,0,0,0,0,0,0,0,0,0,2,5,0,2,5,1,0,0,5,5,0,0,0,2,0,4,0,0,1,0,1,0,0,0,1,1,2,0,0,0,1,0,0,0,3,0,0 | 0,2,0,4,0,0,0,1,0,0,3,1,1,0,0,0,4,0,5,0,0,1,0,0,0,0,0,0,0,4,0,0,2,0,0,0,0,0,0,0,0,0,3,5,4,0,1,4,0,0,1,0,0,5,5,0,0,0,4,3 | 0,0,0,0,0,0,0,4,0,0,1,3,0,4,2,0,0,0,0,2,0,5,0,0,0,0,0,0,0,3,4,4,0,0,0,1,0,1,0,0,0,0,0,5,0,0,0,5,0,0,0,0,0,3,0,0,0,0,0,3 | 4,1,0,3,0,5,0,3,0,0,0,0,0,0,0,0,3,0,0,0,0,0,1,5,0,5,0,0,0,0,0,2,0,1,4,5,0,0,3,0,2,0,0,0,3,1,0,1,2,0,4,0,5,0,0,0,0,3,0,4 | 0,0,0,0,0,4,0,0,0,0,2,2,0,1,0,0,1,1,0,0,0,0,0,0,0,0,3,3,5,0,5,5,0,0,2,0,2,0,3,2,0,0,0,0,0,0,0,0,0,0,0,1,0,0,5,0,4,2,1,2 | 0,0,5,0,0,0,0,0,0,2,3,0,3,1,0,0,0,0,0,0,0,1,4,0,0,0,0,0,3,0,0,5,0,5,0,0,0,0,0,0,0,3,0,0,1,4,0,1,0,0,1,0,0,0,0,0,0,0,0,0 | 0,0,0,0,0,0,0,2,0,0,0,0,0,0,3,0,0,0,3,1,3,0,2,1,0,0,0,5,0,0,0,0,0,0,4,0,0,3,0,0,0,1,0,0,0,0,0,2,0,0,0,0,0,0,0,0,4,0,0,0 | 4,0,0,0,0,0,0,0,0,0,0,0,5,4,0,0,4,0,1,0,0,0,0,0,0,4,0,0,0,0,0,0,0,0,2,0,0,2,0,0,5,3,0,0,0,1,0,0,0,0,0,4,0,0,0,4,0,0,0,3 | 0,0,0,0,0,0,0,3,0,3,0,0,0,0,0,0,0,3,0,0,0,0,0,0,0,1,5,5,5,3,0,0,0,0,0,0,1,0,2,0,0,0,0,2,0,0,3,0,3,0,0,2,2,0,3,0,4,4,4,0 | 0,0,0,0,0,5,3,0,5,3,1,0,0,0,0,0,1,0,0,0,0,0,1,0,0,0,0,0,0,1,3,1,0,5,3,2,0,4,5,0,0,4,5,0,0,2,0,0,0,0,0,4,0,1,0,0,0,5,0,3 | 0,0,1,3,0,0,0,0,0,0,0,0,1,0,0,0,0,3,4,4,0,0,0,0,0,0,0,0,0,0,0,0,2,0,0,0,5,4,0,0,0,0,0,3,0,0,0,0,1,5,0,5,0,0,0,3,0,0,0,3 | 0,0,0,0,0,0,1,0,4,0,0,0,0,0,5,3,3,0,5,0,0,3,0,0,0,0,2,0,0,0,2,0,1,5,0,0,1,0,0,4,0,0,0,4,0,0,3,4,0,0,0,1,0,0,2,0,0,0,0,0 | 0,5,0,0,4,0,4,1,0,0,3,1,0,2,3,0,0,2,0,0,0,1,0,0,0,4,5,4,0,1,0,0,0,0,0,0,3,2,0,0,0,0,1,0,0,0,0,3,0,0,2,0,0,0,5,0,0,4,0,0 | 0,0,0,0,3,0,3,0,0,0,0,3,0,0,0,0,0,0,1,2,5,0,1,0,2,0,0,0,0,0,0,3,3,1,0,3,3,2,0,0,0,0,0,3,0,0,1,0,0,2,0,0,2,5,0,0,0,0,0,0 | 2,0,0,0,0,0,0,0,0,0,0,0,0,0,0,0,2,0,0,2,5,2,0,0,0,0,0,0,0,0,4,3,5,0,0,0,4,0,0,3,2,0,0,0,0,0,3,0,0,3,0,4,0,4,0,1,0,0,0,0 | 2,0,0,0,3,1,0,0,0,2,0,0,0,4,4,0,0,2,2,5,0,0,0,0,1,0,0,0,0,0,3,2,0,0,5,0,0,2,0,3,0,0,0,0,0,0,0,1,0,0,0,0,0,0,0,0,0,0,0,1 | 0,0,3,3,2,0,2,0,0,0,0,0,0,0,0,5,0,0,1,4,0,0,0,0,0,1,4,0,0,3,0,0,0,3,0,0,0,5,0,5,0,0,0,0,0,0,0,1,0,0,4,0,2,1,0,0,0,0,0,5 |];
